--- Job with_locational_instrument.gms Start 02/15/22 16:00:52 30.3.0 rc5da09e WEX-WEI x86 64bit/MS Windows
--- GAMS Parameters defined
    Input C:\Users\a.eicke\Documents\Locational-investment-signals\Two node models\with_locational_instrument.gms
    PageSize 0
    ScrDir C:\Users\a.eicke\Documents\Locational-investment-signals\Two node models\225c\
    SysDir C:\GAMS\win64\30.3\
    LogOption 3
    ErrMsg 1
    ErrorLog 99
    IDE 1
    LstTitleLeftAligned 1
GAMS 30.3.0   Copyright (C) 1987-2020 GAMS Development. All rights reserved
Licensee: Small MUD - 5 User License                     S190305:0326AO-WIN
          Hertie School of Governance GmbH, Governance of DigitalizaDC14808
--- Starting compilation
--- with_locational_instrument.gms(72) 3 Mb
--- GDXin=C:\Users\a.eicke\Documents\Locational-investment-signals\Two node models\in.gdx
--- with_locational_instrument.gms(75) 3 Mb
--- GDXin=C:\Users\a.eicke\Documents\Locational-investment-signals\Two node models\load.gdx
--- with_locational_instrument.gms(78) 3 Mb
--- GDXin=C:\Users\a.eicke\Documents\Locational-investment-signals\Two node models\avail.gdx
--- with_locational_instrument.gms(301) 3 Mb
--- Starting execution: elapsed 0:00:00.010
--- with_locational_instrument.gms(266) 4 Mb
--- Generating MIQCP model LOCI
--- with_locational_instrument.gms(269) 6 Mb
---   787 rows  605 columns  2,183 non-zeroes
---   154 nl-code  24 nl-non-zeroes
---   160 discrete-columns
--- with_locational_instrument.gms(269) 4 Mb
--- Executing CPLEX: elapsed 0:00:00.023

IBM ILOG CPLEX   30.3.0 rc5da09e Released Mar 06, 2020 WEI x86 64bit/MS Window
--- GAMS/Cplex licensed for continuous and discrete problems.
Cplex 12.10.0.0

The search will stop after 65000000 nodes.
Reading data...
Starting Cplex...
Space for names approximately 0.04 Mb
Use option 'names no' to turn use of names off
Version identifier: 12.10.0.0 | 2019-11-26 | 843d4de2ae
CPXPARAM_Advance                                 0
CPXPARAM_Threads                                 1
CPXPARAM_Parallel                                1
CPXPARAM_MIP_Display                             4
CPXPARAM_Simplex_Limits_Iterations               2000000000
CPXPARAM_MIP_Limits_Nodes                        65000000
CPXPARAM_TimeLimit                               150000
CPXPARAM_Tune_TimeLimit                          30000
CPXPARAM_MIP_Tolerances_AbsMIPGap                0
CPXPARAM_MIP_Tolerances_MIPGap                   9.9999999999999995e-08
CPXPARAM_WorkDir                                 "C:\Users\a.eicke\Documents\Locational-investment-signals\Two node models\225c\"
Tried aggregator 2 times.
MIQP Presolve eliminated 246 rows and 61 columns.
MIQP Presolve modified 220 coefficients.
Aggregator did 17 substitutions.
Reduced MIQP has 524 rows, 525 columns, and 1544 nonzeros.
Reduced MIQP has 144 binaries, 0 generals, 0 SOSs, and 0 indicators.
Reduced MIQP objective Q matrix has 24 nonzeros.
Presolve time = 0.02 sec. (1.33 ticks)
Probing fixed 8 vars, tightened 245 bounds.
Probing time = 0.00 sec. (0.80 ticks)
Cover probing fixed 0 vars, tightened 11 bounds.
Tried aggregator 2 times.
MIQP Presolve eliminated 16 rows and 16 columns.
MIQP Presolve modified 111 coefficients.
Aggregator did 8 substitutions.
Reduced MIQP has 500 rows, 501 columns, and 1488 nonzeros.
Reduced MIQP has 136 binaries, 0 generals, 0 SOSs, and 0 indicators.
Reduced MIQP objective Q matrix has 24 nonzeros.
Presolve time = 0.00 sec. (0.89 ticks)
Classifier predicts products in MIQP should be linearized.
Probing fixed 10 vars, tightened 178 bounds.
Probing time = 0.00 sec. (0.84 ticks)
Clique table members: 152.
MIP emphasis: balance optimality and feasibility.
MIP search method: dynamic search.
Parallel mode: none, using 1 thread.
Tried aggregator 1 time.
QP Presolve eliminated 36 rows and 36 columns.
Aggregator did 113 substitutions.
Reduced QP has 351 rows, 352 columns, and 1167 nonzeros.
Reduced QP objective Q matrix has 24 nonzeros.
Presolve time = 0.00 sec. (0.40 ticks)
Parallel mode: none, using 1 thread for barrier

***NOTE: Found 6 dense columns.

Number of nonzeros in lower triangle of A*A' = 1618
Using Approximate Minimum Degree ordering
Total time for automatic ordering = 0.00 sec. (0.15 ticks)
Summary statistics for Cholesky factor:
  Rows in Factor            = 357
  Integer space required    = 975
  Total non-zeros in factor = 4920
  Total FP ops to factor    = 100850
 Itn      Primal Obj        Dual Obj  Prim Inf Upper Inf  Dual Inf          
   0  -5.0484348e+08   8.7451828e+08  3.63e+05  2.89e+05  1.65e+06
   1  -1.7885208e+07   9.2339793e+07  6.83e+04  5.43e+04  3.10e+05
   2  -4.3590125e+05   1.6046972e+07  1.32e+04  1.05e+04  5.99e+04
   3   1.7623581e+05   7.5390853e+06  4.74e+03  3.76e+03  2.15e+04
   4   2.8829927e+05   4.2828827e+06  2.02e+03  1.61e+03  9.19e+03
   5   3.6031495e+05   9.8487394e+05  2.03e+02  1.61e+02  9.21e+02
   6   3.7752914e+05   6.3365477e+05  5.23e+01  4.15e+01  2.37e+02
   7   3.9261488e+05   4.5872417e+05  1.17e+01  9.25e+00  5.28e+01
   8   3.9775297e+05   4.2572235e+05  3.35e+00  2.66e+00  1.51e+01
   9   3.9779395e+05   4.2030898e+05  1.89e+00  1.50e+00  8.53e+00
  10   3.9969079e+05   4.0830882e+05  6.34e-01  5.03e-01  2.87e+00
  11   4.0020480e+05   4.0412570e+05  1.58e-01  1.25e-01  7.13e-01
  12   4.0047389e+05   4.0206615e+05  2.03e-02  1.61e-02  9.18e-02
  13   4.0063236e+05   4.0102273e+05  4.64e-03  3.68e-03  2.10e-02
  14   4.0067108e+05   4.0073936e+05  8.06e-04  6.38e-04  3.64e-03
  15   4.0067895e+05   4.0068002e+05  1.16e-05  9.18e-06  5.24e-05
  16   4.0067907e+05   4.0067908e+05  8.95e-08  6.57e-08  3.73e-07
  17   4.0067907e+05   4.0067907e+05  2.39e-09  5.31e-10  1.81e-09
  18   4.0067907e+05   4.0067907e+05  1.52e-09  1.81e-10  4.14e-11
Barrier time = 0.03 sec. (5.57 ticks)

QP crossover.
  Primal and Dual:  Fixing 217 variables.
  Primal:  Pushed 89, exchanged 105.
  Dual  :  Pushed 2, exchanged 87.
Removing shift (1).
Total crossover time = 0.00 sec. (4.54 ticks)

Total time on 1 threads = 0.03 sec. (10.54 ticks)
Root relaxation solution time = 0.03 sec. (10.54 ticks)

        Nodes                                         Cuts/
   Node  Left     Objective  IInf  Best Integer    Best Bound    ItCnt     Gap

      0     0   400679.0686    71                 400679.0686       18         
      0     0   400679.0686    71                   Cuts: 225      401         
      0     0   400679.0686    71                   Cuts: 188      639         
      0     0   400679.0686    71                    Cuts: 82      890         
*     0+    0                       396719.7255   400679.0686             1.00%
Found incumbent of value 396719.725504 after 0.28 sec. (117.48 ticks)
      0     2   400679.0686    75   396719.7255   400679.0686      890    1.00%
Elapsed time = 0.28 sec. (118.56 ticks, tree = 0.01 MB, solutions = 1)
*    30+    6                       400673.1571   400679.0686             0.00%
Found incumbent of value 400673.157095 after 0.34 sec. (145.06 ticks)
*    66    14      integral     0   400678.3071   400679.0686     1927    0.00%
                                                  Impl Bds: 8                  
Found incumbent of value 400678.307055 after 0.41 sec. (174.15 ticks)
*    80+    1                       400679.0686   400679.0686             0.00%
                                                  Impl Bds: 1                  
Found incumbent of value 400679.068569 after 0.42 sec. (185.76 ticks)

Clique cuts applied:  20
Implied bound cuts applied:  38
Flow cuts applied:  51
Mixed integer rounding cuts applied:  54
Zero-half cuts applied:  2
Gomory fractional cuts applied:  2

Root node processing (before b&c):
  Real time             =    0.30 sec. (118.56 ticks)
Sequential b&c:
  Real time             =    0.14 sec. (67.31 ticks)
                          ------------
Total (root+branch&cut) =    0.44 sec. (185.88 ticks)
MIQP status(101): integer optimal solution
Cplex Time: 0.44sec (det. 185.88 ticks)
Fixing integer variables, and solving final QP..
Version identifier: 12.10.0.0 | 2019-11-26 | 843d4de2ae
CPXPARAM_Advance                                 2
CPXPARAM_Threads                                 1
CPXPARAM_Parallel                                1
CPXPARAM_MIP_Display                             4
CPXPARAM_Simplex_Limits_Iterations               2000000000
CPXPARAM_MIP_Limits_Nodes                        65000000
CPXPARAM_TimeLimit                               150000
CPXPARAM_Tune_TimeLimit                          30000
CPXPARAM_MIP_Tolerances_AbsMIPGap                0
CPXPARAM_MIP_Tolerances_MIPGap                   9.9999999999999995e-08
CPXPARAM_WorkDir                                 "C:\Users\a.eicke\Documents\Locational-investment-signals\Two node models\225c\"
Tried aggregator 1 time.
QP Presolve eliminated 585 rows and 412 columns.
Aggregator did 78 substitutions.
Reduced QP has 124 rows, 115 columns, and 430 nonzeros.
Reduced QP objective Q matrix has 24 nonzeros.
Presolve time = 0.00 sec. (0.60 ticks)
Parallel mode: none, using 1 thread for barrier

***NOTE: Found 8 dense columns.

Number of nonzeros in lower triangle of A*A' = 322
Using Approximate Minimum Degree ordering
Total time for automatic ordering = 0.00 sec. (0.02 ticks)
Summary statistics for Cholesky factor:
  Rows in Factor            = 132
  Integer space required    = 261
  Total non-zeros in factor = 1474
  Total FP ops to factor    = 20354
 Itn      Primal Obj        Dual Obj  Prim Inf Upper Inf  Dual Inf          
   0   9.7375100e+04   1.0588234e+07  4.96e+02  1.64e+01  1.48e+05
   1   2.2222615e+05   5.0250152e+06  2.08e+02  6.89e+00  6.24e+04
   2   3.3369305e+05   3.0638884e+06  1.05e+02  3.40e+00  3.08e+04
   3   3.7047138e+05   1.7901080e+06  4.48e+01  1.45e+00  1.32e+04
   4   3.8529807e+05   8.8432962e+05  1.39e+01  4.50e-01  4.11e+03
   5   3.9281364e+05   4.3363710e+05  1.07e+00  3.46e-02  3.38e+02
   6   3.9796258e+05   4.1874551e+05  2.44e-01  7.84e-03  8.14e+01
   7   3.9956239e+05   4.0606524e+05  3.61e-02  1.16e-03  1.21e+01
   8   4.0034090e+05   4.0198795e+05  5.30e-03  1.70e-04  1.77e+00
   9   4.0052052e+05   4.0124983e+05  1.70e-10  5.04e-13  2.37e-03
  10   4.0066516e+05   4.0073353e+05  1.81e-10  3.16e-13  2.61e-04
  11   4.0067772e+05   4.0068420e+05  7.49e-10  3.13e-13  2.52e-05
  12   4.0067906e+05   4.0067911e+05  3.33e-10  2.45e-13  1.35e-07
  13   4.0067907e+05   4.0067907e+05  1.48e-10  3.66e-13  5.38e-10
Barrier time = 0.00 sec. (2.01 ticks)

Total time on 1 threads = 0.00 sec. (2.01 ticks)
QP status(1): optimal
Cplex Time: 0.00sec (det. 2.01 ticks)

Proven optimal solution.

MIP Solution:       400679.068569    (2036 iterations, 80 nodes)
Final Solve:        400679.068492    (0 iterations)

Best possible:      400679.068569
Absolute gap:            0.000000
Relative gap:            0.000000

--- Restarting execution
--- with_locational_instrument.gms(269) 2 Mb
--- Reading solution for model LOCI
--- Executing after solve: elapsed 0:00:00.610
--- with_locational_instrument.gms(301) 3 Mb
--- GDX File C:\Users\a.eicke\Documents\Locational-investment-signals\Two node models\Output/with_instrument.gdx
*** Status: Normal completion
--- Job with_locational_instrument.gms Stop 02/15/22 16:00:53 elapsed 0:00:00.626
